NAME          BLANK   
ROWS
 N  OBJROW
 L  R0000000
COLUMNS
    C0000000  OBJROW     -658.         R0000000  174.        
    C0000001  OBJROW     -305.         R0000000  157.        
    C0000002  OBJROW     -378.         R0000000  196.        
    C0000003  OBJROW     -65.          R0000000  567.        
    C0000004  OBJROW     -1000.        R0000000  786.        
    C0000005  OBJROW     -11.          R0000000  673.        
    C0000006  OBJROW     -976.         R0000000  808.        
    C0000007  OBJROW     -489.         R0000000  211.        
    C0000008  OBJROW     -754.         R0000000  86.         
    C0000009  OBJROW     -961.         R0000000  565.        
    C0000010  OBJROW     -786.         R0000000  868.        
    C0000011  OBJROW     -857.         R0000000  623.        
    C0000012  OBJROW     -442.         R0000000  716.        
    C0000013  OBJROW     -951.         R0000000  927.        
    C0000014  OBJROW     -363.         R0000000  196.        
    C0000015  OBJROW     -975.         R0000000  367.        
    C0000016  OBJROW     -924.         R0000000  722.        
    C0000017  OBJROW     -389.         R0000000  529.        
    C0000018  OBJROW     -118.         R0000000  616.        
    C0000019  OBJROW     -77.          R0000000  459.        
RHS
    RHS       R0000000  5123.       
BOUNDS
 BV BOUND     C0000000  1.          
 BV BOUND     C0000001  1.          
 BV BOUND     C0000002  1.          
 BV BOUND     C0000003  1.          
 BV BOUND     C0000004  1.          
 BV BOUND     C0000005  1.          
 BV BOUND     C0000006  1.          
 BV BOUND     C0000007  1.          
 BV BOUND     C0000008  1.          
 BV BOUND     C0000009  1.          
 BV BOUND     C0000010  1.          
 BV BOUND     C0000011  1.          
 BV BOUND     C0000012  1.          
 BV BOUND     C0000013  1.          
 BV BOUND     C0000014  1.          
 BV BOUND     C0000015  1.          
 BV BOUND     C0000016  1.          
 BV BOUND     C0000017  1.          
 BV BOUND     C0000018  1.          
 BV BOUND     C0000019  1.          
ENDATA
